RT is False
Default write of storage_offers_DA.csv just to have a file (but constraint should be inactive)
Reading model...
...model read.
creating competitive generators file...
...competitive generators recorded.
Loading data...
.. day-ahead data read.
Compiling instance...
...instance created.
Creating Offer Mitigation (model will solve as dispatch if TRUE)...
NOTE: storage offers will not be mitigated
...storage offer mitigation file created
Converting model to MPEC...
...converted
NOTE: initial MIP solve with only storage competitive to get feasible solution
Solving...

Welcome to IBM(R) ILOG(R) CPLEX(R) Interactive Optimizer 12.9.0.0
  with Simplex, Mixed Integer & Barrier Optimizers
5725-A06 5725-A29 5724-Y48 5724-Y49 5724-Y54 5724-Y55 5655-Y21
Copyright IBM Corp. 1988, 2019.  All Rights Reserved.

Type 'help' for a list of available commands.
Type 'help' followed by a command name for more
information on commands.

CPLEX> Logfile 'cplex.log' closed.
Logfile 'C:\Users\Luke\Desktop\competitiveMPEC_12.6\logs\tmpu7hkq6y3.cplex.log' open.
CPLEX> New value for parallel optimization mode: -1
CPLEX> New value for mixed integer optimality gap tolerance: 0.01
CPLEX> New value for integrality tolerance: 1e-09
CPLEX> New value for feasibility tolerance: 0.01
CPLEX> New value for deterministic time limit in ticks: 175000
CPLEX> Problem 'C:\Users\Luke\Desktop\competitiveMPEC_12.6\logs\tmplhnuz1ao.pyomo.lp' read.
Read time = 0.20 sec. (14.73 ticks)
CPLEX> Problem name         : C:\Users\Luke\Desktop\competitiveMPEC_12.6\logs\tmplhnuz1ao.pyomo.lp
Objective sense      : Maximize
Variables            :   53805  [Nneg: 1,  Box: 22000,  Free: 4464,
                                 Binary: 27340]
Objective nonzeros   :    9020
Linear constraints   :  123205  [Less: 41346,  Greater: 59096,  Equal: 22763]
  Nonzeros           :  291744
  RHS nonzeros       :   67482

Variables            : Min LB: -5000.000        Max UB: 1000000.       
Objective nonzeros   : Min   : 0.1000000        Max   : 2500.000       
Linear constraints   :
  Nonzeros           : Min   : 0.1000000        Max   : 1000000.       
  RHS nonzeros       : Min   : 0.1000000        Max   : 1000000.       
CPLEX> CPXPARAM_Parallel                                -1
CPXPARAM_Simplex_Tolerances_Feasibility          0.01
CPXPARAM_DetTimeLimit                            175000
CPXPARAM_MIP_Tolerances_MIPGap                   0.01
CPXPARAM_MIP_Tolerances_Integrality              1.0000000000000001e-09
Tried aggregator 3 times.
MIP Presolve eliminated 88689 rows and 19007 columns.
MIP Presolve added 3368 rows and 0 columns.
MIP Presolve modified 24812 coefficients.
Aggregator did 12990 substitutions.
Reduced MIP has 24894 rows, 21246 columns, and 71064 nonzeros.
Reduced MIP has 8399 binaries, 0 generals, 0 SOSs, and 0 indicators.
Presolve time = 0.24 sec. (173.64 ticks)
Probing fixed 408 vars, tightened 2948 bounds.
Probing time = 1.47 sec. (897.52 ticks)
Tried aggregator 2 times.
MIP Presolve eliminated 912 rows and 816 columns.
MIP Presolve modified 2204 coefficients.
Aggregator did 54 substitutions.
Reduced MIP has 23928 rows, 20376 columns, and 68262 nonzeros.
Reduced MIP has 7991 binaries, 0 generals, 0 SOSs, and 0 indicators.
Presolve time = 0.09 sec. (70.34 ticks)
Probing time = 0.02 sec. (15.47 ticks)
Clique table members: 6180.
MIP emphasis: balance optimality and feasibility.
MIP search method: dynamic search.
Parallel mode: opportunistic, using up to 24 threads.
Root relaxation solution time = 0.33 sec. (480.17 ticks)

        Nodes                                         Cuts/
   Node  Left     Objective  IInf  Best Integer    Best Bound    ItCnt     Gap

      0     0        0.0000   659                      0.0000     5445         
*     0     0      integral     0        0.0000        0.0000     5445    0.00%
Elapsed time = 3.88 sec. (2795.46 ticks, tree = 0.01 MB, solutions = 1)

Root node processing (before b&c):
  Real time             =    3.89 sec. (2797.40 ticks)
Parallel b&c, 24 threads:
  Real time             =    0.00 sec. (0.00 ticks)
  Sync time (average)   =    0.00 sec.
  Wait time (average)   =    0.00 sec.
                          ------------
Total (root+branch&cut) =    3.89 sec. (2797.40 ticks)

Solution pool: 1 solution saved.

MIP - Integer optimal solution:  Objective =  3.6334313336e-10
Solution time =    3.91 sec.  Iterations = 5445  Nodes = 0
Deterministic time = 2797.56 ticks  (716.22 ticks/sec)

CPLEX> Incumbent solution written to file 'C:\Users\Luke\Desktop\competitiveMPEC_12.6\logs\tmpm_z_n5ef.cplex.sol'.
CPLEX> NOTE: no warmstart specified for MIP iteration, default behavior is true
NOTE: resolving with all competitive generators using storage-only solution to warmstart
Solving...

Welcome to IBM(R) ILOG(R) CPLEX(R) Interactive Optimizer 12.9.0.0
  with Simplex, Mixed Integer & Barrier Optimizers
5725-A06 5725-A29 5724-Y48 5724-Y49 5724-Y54 5724-Y55 5655-Y21
Copyright IBM Corp. 1988, 2019.  All Rights Reserved.

Type 'help' for a list of available commands.
Type 'help' followed by a command name for more
information on commands.

CPLEX> Logfile 'cplex.log' closed.
Logfile 'C:\Users\Luke\Desktop\competitiveMPEC_12.6\logs\tmpdt017w2o.cplex.log' open.
CPLEX> New value for parallel optimization mode: -1
CPLEX> New value for mixed integer optimality gap tolerance: 0.01
CPLEX> New value for integrality tolerance: 1e-09
CPLEX> New value for feasibility tolerance: 0.01
CPLEX> New value for deterministic time limit in ticks: 175000
CPLEX> Problem 'C:\Users\Luke\Desktop\competitiveMPEC_12.6\logs\tmpyzs4vajd.pyomo.lp' read.
Read time = 0.20 sec. (14.75 ticks)
CPLEX> MIP start file 'C:\Users\Luke\Desktop\competitiveMPEC_12.6\logs\tmpoa5l18v8.cplex.mst' read.
CPLEX> Problem name         : C:\Users\Luke\Desktop\competitiveMPEC_12.6\logs\tmpyzs4vajd.pyomo.lp
Objective sense      : Maximize
Variables            :   54525  [Nneg: 1,  Box: 22720,  Free: 4464,
                                 Binary: 27340]
Objective nonzeros   :    9716
Linear constraints   :  123205  [Less: 41346,  Greater: 59096,  Equal: 22763]
  Nonzeros           :  291744
  RHS nonzeros       :   67482

Variables            : Min LB: -5000.000        Max UB: 1000000.       
Objective nonzeros   : Min   : 0.1000000        Max   : 2500.000       
Linear constraints   :
  Nonzeros           : Min   : 0.1000000        Max   : 1000000.       
  RHS nonzeros       : Min   : 0.1000000        Max   : 1000000.       
CPLEX> CPXPARAM_Parallel                                -1
CPXPARAM_Simplex_Tolerances_Feasibility          0.01
CPXPARAM_DetTimeLimit                            175000
CPXPARAM_MIP_Tolerances_MIPGap                   0.01
CPXPARAM_MIP_Tolerances_Integrality              1.0000000000000001e-09
Warning:  No solution found from 1 MIP starts.
Retaining values of one MIP start for possible repair.
Tried aggregator 3 times.
MIP Presolve eliminated 88689 rows and 19727 columns.
MIP Presolve added 3368 rows and 0 columns.
MIP Presolve modified 24812 coefficients.
Aggregator did 12990 substitutions.
Reduced MIP has 24894 rows, 21246 columns, and 71064 nonzeros.
Reduced MIP has 8399 binaries, 0 generals, 0 SOSs, and 0 indicators.
Presolve time = 0.23 sec. (174.00 ticks)
Probing fixed 408 vars, tightened 2948 bounds.
Probing time = 1.47 sec. (897.52 ticks)
Tried aggregator 2 times.
MIP Presolve eliminated 912 rows and 816 columns.
MIP Presolve modified 2204 coefficients.
Aggregator did 54 substitutions.
Reduced MIP has 23928 rows, 20376 columns, and 68262 nonzeros.
Reduced MIP has 7991 binaries, 0 generals, 0 SOSs, and 0 indicators.
Presolve time = 0.11 sec. (70.34 ticks)
Probing time = 0.03 sec. (15.47 ticks)
Clique table members: 6180.
MIP emphasis: balance optimality and feasibility.
MIP search method: dynamic search.
Parallel mode: opportunistic, using up to 24 threads.
Root relaxation solution time = 0.27 sec. (240.66 ticks)

        Nodes                                         Cuts/
   Node  Left     Objective  IInf  Best Integer    Best Bound    ItCnt     Gap

      0     0   112765.3578  1699                 112765.3578     5489         
      0     0   109642.6208   672                   Cuts: 557     5790         
      0     0   109038.2584   608                   Cuts: 209     5951         
      0     0   109010.6490   580                   Cuts: 149     6040         
      0     0   107670.4748   547                   Cuts: 115     6100         
      0     0   107670.4748   532                    Cuts: 71     6122         
      0     0   107664.7492   524                    Cuts: 60     6136         
      0     0   107664.7492   519                    Cuts: 59     6147         
      0     0   107664.7492   511                    Cuts: 48     6157         
Repair heuristic found nothing.
      0    11    infeasible                          Cuts: 45     6302         
Elapsed time = 11.33 sec. (8080.36 ticks, tree = 0.02 MB, solutions = 0)
    207    41    68320.0820   408                  82033.0447     8772         
    444   102    44301.1541   401                  71608.1196    11917         
    856   359    39696.2259   357                  71608.1196    17284         
   1328   685    33745.3207   386                  71608.1196    21944         
   1872   894    10326.2690   325                  71608.1196    25597         
   2421  1186     1744.9748   306                  71608.1196    30531         
   3176  1713   -16590.9504   313                  71608.1196    34829         
   3930  2265    16690.8374   323                  71608.1196    38218         
   4724  3088    infeasible                        71608.1196    40333         
   8111  6153   -10981.7230   248                  71608.1196    44531         
Elapsed time = 19.70 sec. (11182.75 ticks, tree = 55.55 MB, solutions = 0)
*  8755  6808      integral     0    24816.3869    71608.1196    45370  188.55%
*  8804  6464      integral     0    30734.6498    71608.1196    44702  132.99%
  10084  1155    51091.1129   397    30734.6498    71491.6410    48548  132.61%

Clique cuts applied:  13
Cover cuts applied:  76
Implied bound cuts applied:  30
Flow cuts applied:  602
Mixed integer rounding cuts applied:  189
Gomory fractional cuts applied:  159

Root node processing (before b&c):
  Real time             =   10.78 sec. (8062.52 ticks)
Parallel b&c, 24 threads:
  Real time             =   17.13 sec. (8332.99 ticks)
  Sync time (average)   =    0.25 sec.
  Wait time (average)   =    0.00 sec.
                          ------------
Total (root+branch&cut) =   27.91 sec. (16395.51 ticks)

Solution pool: 2 solutions saved.

MIP - Integer optimal, tolerance (0.01/1e-06):  Objective =  3.0734649820e+04
Current MIP best bound =  3.0985360061e+04 (gap = 250.71, 0.82%)
Solution time =   27.94 sec.  Iterations = 71642  Nodes = 10586 (2118)
Deterministic time = 16395.67 ticks  (586.86 ticks/sec)

CPLEX> Incumbent solution written to file 'C:\Users\Luke\Desktop\competitiveMPEC_12.6\logs\tmpjs5vjoq5.cplex.sol'.
CPLEX> Exporting results... 
